
Gurobi 8.0.0 (win64, Python) logging started 07/09/18 11:02:12

Academic license - for non-commercial use only
Read LP format model from file H:\fscmodel-single-step-master\fscmodel-single-step\tmp7p9s8obb.pyomo.lp
Reading time = 0.02 seconds
x742: 64 rows, 742 columns, 138 nonzeros
Optimize a model with 64 rows, 742 columns and 138 nonzeros
Model has 189 quadratic constraints
Model has 166 SOS constraints
Variable types: 223 continuous, 519 integer (519 binary)
Coefficient statistics:
  Matrix range     [7e-02, 2e+00]
  QMatrix range    [1e+00, 1e+00]
  QLMatrix range   [1e+00, 1e+00]
  Objective range  [1e-02, 3e+07]
  Bounds range     [1e+00, 1e+10]
  RHS range        [1e+00, 9e+05]
Warning: Model contains large bounds
         Consider reformulating model or setting NumericFocus parameter
         to avoid numerical issues.
Presolve added 108 rows and 0 columns
Presolve removed 0 rows and 57 columns
Presolve time: 0.00s

Explored 0 nodes (0 simplex iterations) in 0.00 seconds
Thread count was 1 (of 4 available processors)

Solution count 0

Best objective -, best bound -, gap -
Freed default Gurobi environment
